files/upTests/_mset/mset/0008.eprime.solution
language ESSENCE' 1.0
$ minion Nodes: 10
$ minion TotalTime: 0.001259
$ Savile Row TotalTime: 0.616
letting y_MSetOccurrence be [0, 1, 0, 1, 1;int(3..7)]
letting x_MSetOccurrence be [1, 0, 1, 1, 1, 1;int(4..9)]
